proyfinal/src/viki/013/experimentInOfficeAgust.take6.output/18cbdb1a-7726-4187-9855-cf1f9cca95d4.als.dat
{'cnf.clauses': '118081',
 'cnf.totvars': '69608',
 'conflict literals': '7',
 'conflicts': '6',
 'decisions': '658',
 'memused.mb': '15.40',
 'outcome': 'UNSAT',
 'propagations': '21574',
 'restarts': '1',
 'solver.msecs': 33,
 'task.msecs': 79}
