proyfinal/src/viki/013/experimentInOfficeAgust.take6.output/18cbdb1a-7726-4187-9855-cf1f9cca95d4.als.out
Reading from standard input... Use '--help' for help.
============================[ Problem Statistics ]=============================
|                                                                             |
|  Number of variables:         69608                                         |
|  Number of clauses:          118081                                         |
|  Parse time:                   0.02 s                                       |
|                                                                             |
============================[ Search Statistics ]==============================
| Conflicts |          ORIGINAL         |          LEARNT          | Progress |
|           |    Vars  Clauses Literals |    Limit  Clauses Lit/Cl |          |
===============================================================================
===============================================================================
restarts              : 1
conflicts             : 6              (180 /sec)
decisions             : 658            (0.00 % random) (19714 /sec)
propagations          : 21574          (646354 /sec)
conflict literals     : 7              (0.00 % deleted)
Memory used           : 15.40 MB
CPU time              : 0.033378 s

UNSATISFIABLE
